(set-info :smt-lib-version 2.6)
(set-logic UF)
(set-info :source |Benchmarks from the paper: "Extending Sledgehammer with SMT Solvers" by Jasmin Blanchette, Sascha Bohme, and Lawrence C. Paulson, CADE 2011.  Translated to SMT2 by Andrew Reynolds and Morgan Deters.|)
(set-info :category "industrial")
(set-info :status unknown)
(declare-sort S1 0)
(declare-sort S2 0)
(declare-sort S3 0)
(declare-sort S4 0)
(declare-sort S5 0)
(declare-sort S6 0)
(declare-sort S7 0)
(declare-sort S8 0)
(declare-sort S9 0)
(declare-sort S10 0)
(declare-sort S11 0)
(declare-sort S12 0)
(declare-sort S13 0)
(declare-sort S14 0)
(declare-sort S15 0)
(declare-sort S16 0)
(declare-sort S17 0)
(declare-sort S18 0)
(declare-sort S19 0)
(declare-sort S20 0)
(declare-sort S21 0)
(declare-fun f1 () S1)
(declare-fun f2 () S1)
(declare-fun f3 (S2 S3) S4)
(declare-fun f4 (S5 S2) S2)
(declare-fun f5 (S3) S5)
(declare-fun f6 (S6 S3) S3)
(declare-fun f7 (S7 S3) S6)
(declare-fun f8 () S7)
(declare-fun f9 (S8 S9) S3)
(declare-fun f10 () S8)
(declare-fun f11 (S10 S9) S9)
(declare-fun f12 () S10)
(declare-fun f13 () S10)
(declare-fun f14 () S9)
(declare-fun f15 () S3)
(declare-fun f16 () S2)
(declare-fun f17 () S3)
(declare-fun f18 (S3) S5)
(declare-fun f19 (S3 S3) S1)
(declare-fun f20 (S11 S11) S1)
(declare-fun f21 (S12 S9) S11)
(declare-fun f22 () S12)
(declare-fun f23 (S9 S9) S1)
(declare-fun f24 () S10)
(declare-fun f25 (S3) S5)
(declare-fun f26 (S3) S5)
(declare-fun f27 (S13 S3) S11)
(declare-fun f28 (S14 S11) S13)
(declare-fun f29 () S14)
(declare-fun f30 () S11)
(declare-fun f31 (S15 S3) S9)
(declare-fun f32 (S16 S9) S15)
(declare-fun f33 () S16)
(declare-fun f34 () S9)
(declare-fun f35 (S17 S9) S10)
(declare-fun f36 () S17)
(declare-fun f37 (S18 S11) S11)
(declare-fun f38 (S19 S11) S18)
(declare-fun f39 () S19)
(declare-fun f40 () S7)
(declare-fun f41 () S3)
(declare-fun f42 (S21 S3) S1)
(declare-fun f43 (S20 S3) S21)
(assert (not (= f1 f2)))
(assert (not (= (f3 (f4 (f5 (f6 (f7 f8 (f9 f10 (f11 f12 (f11 f13 f14)))) f15)) f16) f17) (f3 (f4 (f18 f15) f16) f17))))
(assert (= (f19 f17 (f6 (f7 f8 (f9 f10 (f11 f12 (f11 f13 f14)))) f15)) f1))
(assert (= (f11 f12 f14) f14))
(assert (forall ((?v0 S9)) (= (= f14 (f11 f12 ?v0)) (= f14 ?v0))))
(assert (forall ((?v0 S9)) (= (= (f11 f12 ?v0) f14) (= ?v0 f14))))
(assert (forall ((?v0 S9) (?v1 S9)) (= (= (f11 f12 ?v0) (f11 f13 ?v1)) false)))
(assert (forall ((?v0 S9) (?v1 S9)) (= (= (f11 f13 ?v0) (f11 f12 ?v1)) false)))
(assert (forall ((?v0 S9)) (= (= f14 (f11 f13 ?v0)) false)))
(assert (forall ((?v0 S9)) (= (= (f11 f13 ?v0) f14) false)))
(assert (forall ((?v0 S9) (?v1 S9)) (= (= (f20 (f21 f22 ?v0) (f21 f22 ?v1)) f1) (= (f23 ?v0 ?v1) f1))))
(assert (forall ((?v0 S9) (?v1 S9)) (= (= (f23 (f11 f24 ?v0) (f11 f24 ?v1)) f1) (= (f23 ?v0 ?v1) f1))))
(assert (forall ((?v0 S3) (?v1 S3) (?v2 S2)) (let ((?v_0 (f6 (f7 f8 (f9 f10 (f11 f12 (f11 f13 f14)))) ?v1))) (=> (= (f19 ?v0 ?v_0) f1) (= (f3 (f4 (f25 ?v_0) ?v2) ?v0) (f3 (f4 (f26 ?v1) ?v2) ?v0))))))
(assert (forall ((?v0 S11)) (not (= (f20 (f27 (f28 f29 ?v0) (f9 f10 (f11 f12 (f11 f13 f14)))) f30) f1))))
(assert (forall ((?v0 S9)) (not (= (f23 (f31 (f32 f33 ?v0) (f9 f10 (f11 f12 (f11 f13 f14)))) f34) f1))))
(assert (forall ((?v0 S11)) (= (= (f20 f30 (f27 (f28 f29 ?v0) (f9 f10 (f11 f12 (f11 f13 f14))))) f1) (not (= ?v0 f30)))))
(assert (forall ((?v0 S9)) (= (= (f23 f34 (f31 (f32 f33 ?v0) (f9 f10 (f11 f12 (f11 f13 f14))))) f1) (not (= ?v0 f34)))))
(assert (forall ((?v0 S9)) (let ((?v_0 (f11 f24 ?v0))) (= (f31 (f32 f33 ?v_0) (f9 f10 (f11 f12 (f11 f13 f14)))) (f11 (f35 f36 ?v_0) ?v_0)))))
(assert (forall ((?v0 S9)) (let ((?v_0 (f21 f22 ?v0))) (= (f27 (f28 f29 ?v_0) (f9 f10 (f11 f12 (f11 f13 f14)))) (f37 (f38 f39 ?v_0) ?v_0)))))
(assert (forall ((?v0 S9)) (let ((?v_0 (f9 f10 ?v0))) (= (f6 (f7 f8 ?v_0) (f9 f10 (f11 f12 (f11 f13 f14)))) (f6 (f7 f40 ?v_0) ?v_0)))))
(assert (= f34 (f11 f24 f14)))
(assert (forall ((?v0 S9) (?v1 S9)) (= (f21 f22 (f11 (f35 f36 ?v0) ?v1)) (f37 (f38 f39 (f21 f22 ?v0)) (f21 f22 ?v1)))))
(assert (forall ((?v0 S9) (?v1 S9)) (= (f11 f24 (f11 (f35 f36 ?v0) ?v1)) (f11 (f35 f36 (f11 f24 ?v0)) (f11 f24 ?v1)))))
(assert (= (= (f23 f14 f34) f1) false))
(assert (forall ((?v0 S2)) (= (f4 (f26 f41) ?v0) ?v0)))
(assert (forall ((?v0 S9) (?v1 S9)) (or (= (f23 ?v0 ?v1) f1) (or (= ?v0 ?v1) (= (f23 ?v1 ?v0) f1)))))
(assert (forall ((?v0 S9)) (= (= (f23 (f11 f12 ?v0) f34) f1) (= (f23 ?v0 f34) f1))))
(assert (forall ((?v0 S9)) (= (= (f23 (f11 f13 ?v0) f34) f1) (= (f23 ?v0 f34) f1))))
(assert (forall ((?v0 S9) (?v1 S9)) (= (f37 (f38 f39 (f21 f22 ?v0)) (f21 f22 ?v1)) (f21 f22 (f11 (f35 f36 ?v0) ?v1)))))
(assert (forall ((?v0 S9) (?v1 S9)) (= (f11 (f35 f36 (f11 f24 ?v0)) (f11 f24 ?v1)) (f11 f24 (f11 (f35 f36 ?v0) ?v1)))))
(assert (forall ((?v0 S9) (?v1 S9)) (= (= (f23 (f11 f24 ?v0) (f11 f24 ?v1)) f1) (= (f23 ?v0 ?v1) f1))))
(assert (forall ((?v0 S9) (?v1 S9)) (= (f6 (f7 f40 (f9 f10 ?v0)) (f9 f10 ?v1)) (ite (= (f23 ?v0 f14) f1) f41 (f9 f10 (f11 (f35 f36 ?v0) ?v1))))))
(assert (forall ((?v0 S9) (?v1 S9) (?v2 S11)) (= (f37 (f38 f39 (f21 f22 ?v0)) (f37 (f38 f39 (f21 f22 ?v1)) ?v2)) (f37 (f38 f39 (f21 f22 (f11 (f35 f36 ?v0) ?v1))) ?v2))))
(assert (forall ((?v0 S9) (?v1 S9) (?v2 S9)) (= (f11 (f35 f36 (f11 f24 ?v0)) (f11 (f35 f36 (f11 f24 ?v1)) ?v2)) (f11 (f35 f36 (f11 f24 (f11 (f35 f36 ?v0) ?v1))) ?v2))))
(assert (forall ((?v0 S9) (?v1 S9) (?v2 S3)) (= (f6 (f7 f40 (f9 f10 ?v0)) (f6 (f7 f40 (f9 f10 ?v1)) ?v2)) (ite (= (f23 ?v0 f14) f1) f41 (f6 (f7 f40 (f9 f10 (f11 (f35 f36 ?v0) ?v1))) ?v2)))))
(assert (forall ((?v0 S9) (?v1 S9) (?v2 S9)) (let ((?v_0 (f35 f36 ?v2))) (=> (= (f23 ?v0 ?v1) f1) (=> (= (f23 f34 ?v2) f1) (= (f23 (f11 ?v_0 ?v0) (f11 ?v_0 ?v1)) f1))))))
(assert (forall ((?v0 S9)) (= (f11 (f35 f36 f14) ?v0) f14)))
(assert (forall ((?v0 S9) (?v1 S9)) (= (= (f23 (f11 f13 ?v0) (f11 f13 ?v1)) f1) (= (f23 ?v0 ?v1) f1))))
(assert (forall ((?v0 S9) (?v1 S9)) (= (= (f23 (f11 f13 ?v0) (f11 f13 ?v1)) f1) (= (f23 ?v0 ?v1) f1))))
(assert (= (= (f23 f14 f14) f1) false))
(assert (forall ((?v0 S9) (?v1 S9)) (= (f11 (f35 f36 (f11 f12 ?v0)) ?v1) (f11 f12 (f11 (f35 f36 ?v0) ?v1)))))
(assert (forall ((?v0 S9) (?v1 S9)) (= (= (f23 (f11 f12 ?v0) (f11 f12 ?v1)) f1) (= (f23 ?v0 ?v1) f1))))
(assert (forall ((?v0 S9) (?v1 S9)) (= (= (f23 (f11 f12 ?v0) (f11 f12 ?v1)) f1) (= (f23 ?v0 ?v1) f1))))
(assert (= f14 f34))
(assert (forall ((?v0 S9)) (= (= (f19 f41 (f9 f10 ?v0)) f1) (= (f23 f14 ?v0) f1))))
(assert (forall ((?v0 S9)) (= (= (f23 (f11 f13 ?v0) f14) f1) (= (f23 ?v0 f14) f1))))
(assert (forall ((?v0 S9) (?v1 S9)) (= (= (f23 (f11 f13 ?v0) (f11 f12 ?v1)) f1) (= (f23 ?v0 ?v1) f1))))
(assert (forall ((?v0 S9) (?v1 S9)) (= (= (f23 (f11 f13 ?v0) (f11 f12 ?v1)) f1) (= (f23 ?v0 ?v1) f1))))
(assert (forall ((?v0 S9)) (= (= (f23 (f11 f12 ?v0) f14) f1) (= (f23 ?v0 f14) f1))))
(assert (forall ((?v0 S9)) (= (= (f23 f14 (f11 f12 ?v0)) f1) (= (f23 f14 ?v0) f1))))
(assert (= (f21 f22 f14) f30))
(assert (= (f9 f10 f14) f41))
(assert (= (f11 f24 f14) f34))
(assert (= (f21 f22 f14) f30))
(assert (= (f11 f24 f14) f34))
(assert (= f30 (f21 f22 f14)))
(assert (= f34 (f11 f24 f14)))
(assert (= (f9 f10 f14) f41))
(assert (= f41 (f9 f10 f14)))
(assert (forall ((?v0 S2)) (= (f4 (f18 f41) ?v0) ?v0)))
(assert (forall ((?v0 S11)) (= (f37 (f38 f39 (f21 f22 (f11 f13 f14))) ?v0) ?v0)))
(assert (forall ((?v0 S9)) (= (f11 (f35 f36 (f11 f24 (f11 f13 f14))) ?v0) ?v0)))
(assert (forall ((?v0 S11)) (= (f37 (f38 f39 ?v0) (f21 f22 (f11 f13 f14))) ?v0)))
(assert (forall ((?v0 S9)) (= (f11 (f35 f36 ?v0) (f11 f24 (f11 f13 f14))) ?v0)))
(assert (forall ((?v0 S9) (?v1 S9)) (= (= (f19 (f9 f10 ?v0) (f9 f10 ?v1)) f1) (ite (= (f23 ?v0 ?v1) f1) (= (f23 f14 ?v1) f1) false))))
(assert (forall ((?v0 S9)) (= (= (f20 (f21 f22 ?v0) f30) f1) (= (f23 ?v0 f14) f1))))
(assert (forall ((?v0 S9)) (= (= (f23 (f11 f24 ?v0) f34) f1) (= (f23 ?v0 f14) f1))))
(assert (forall ((?v0 S9)) (= (= (f20 f30 (f21 f22 ?v0)) f1) (= (f23 f14 ?v0) f1))))
(assert (forall ((?v0 S9)) (= (= (f23 f34 (f11 f24 ?v0)) f1) (= (f23 f14 ?v0) f1))))
(assert (forall ((?v0 S9)) (= (f31 (f32 f33 ?v0) (f9 f10 (f11 f13 (f11 f13 f14)))) (f11 (f35 f36 (f11 (f35 f36 ?v0) ?v0)) ?v0))))
(assert (forall ((?v0 S11)) (= (f27 (f28 f29 ?v0) (f9 f10 (f11 f13 (f11 f13 f14)))) (f37 (f38 f39 (f37 (f38 f39 ?v0) ?v0)) ?v0))))
(assert (forall ((?v0 S3)) (= (f6 (f7 f8 ?v0) (f9 f10 (f11 f13 (f11 f13 f14)))) (f6 (f7 f40 (f6 (f7 f40 ?v0) ?v0)) ?v0))))
(assert (forall ((?v0 S9) (?v1 S9)) (= (= (f21 f22 ?v0) (f21 f22 ?v1)) (= ?v0 ?v1))))
(assert (forall ((?v0 S9) (?v1 S9)) (= (= (f11 f24 ?v0) (f11 f24 ?v1)) (= ?v0 ?v1))))
(assert (forall ((?v0 S9) (?v1 S11)) (let ((?v_0 (f21 f22 ?v0))) (= (= ?v_0 ?v1) (= ?v1 ?v_0)))))
(assert (forall ((?v0 S9) (?v1 S9)) (let ((?v_0 (f11 f24 ?v0))) (= (= ?v_0 ?v1) (= ?v1 ?v_0)))))
(assert (forall ((?v0 S9) (?v1 S3)) (let ((?v_0 (f9 f10 ?v0))) (= (= ?v_0 ?v1) (= ?v1 ?v_0)))))
(assert (forall ((?v0 S9) (?v1 S9)) (= (= (f11 f13 ?v0) (f11 f13 ?v1)) (= ?v0 ?v1))))
(assert (= (= f14 f14) true))
(assert (forall ((?v0 S9) (?v1 S9)) (= (= (f11 f12 ?v0) (f11 f12 ?v1)) (= ?v0 ?v1))))
(assert (forall ((?v0 S9)) (= (f31 (f32 f33 ?v0) (f9 f10 (f11 f12 (f11 f13 f14)))) (f11 (f35 f36 ?v0) ?v0))))
(assert (forall ((?v0 S11)) (= (f27 (f28 f29 ?v0) (f9 f10 (f11 f12 (f11 f13 f14)))) (f37 (f38 f39 ?v0) ?v0))))
(assert (forall ((?v0 S3)) (= (f6 (f7 f8 ?v0) (f9 f10 (f11 f12 (f11 f13 f14)))) (f6 (f7 f40 ?v0) ?v0))))
(assert (forall ((?v0 S9) (?v1 S3)) (let ((?v_1 (f9 f10 (f11 f12 (f11 f13 f14)))) (?v_0 (f32 f33 ?v0))) (= (f31 ?v_0 (f6 (f7 f40 ?v_1) ?v1)) (f31 (f32 f33 (f31 ?v_0 ?v1)) ?v_1)))))
(assert (forall ((?v0 S11) (?v1 S3)) (let ((?v_1 (f9 f10 (f11 f12 (f11 f13 f14)))) (?v_0 (f28 f29 ?v0))) (= (f27 ?v_0 (f6 (f7 f40 ?v_1) ?v1)) (f27 (f28 f29 (f27 ?v_0 ?v1)) ?v_1)))))
(assert (forall ((?v0 S3) (?v1 S3)) (let ((?v_1 (f9 f10 (f11 f12 (f11 f13 f14)))) (?v_0 (f7 f8 ?v0))) (= (f6 ?v_0 (f6 (f7 f40 ?v_1) ?v1)) (f6 (f7 f8 (f6 ?v_0 ?v1)) ?v_1)))))
(assert (forall ((?v0 S11)) (= (= (f27 (f28 f29 ?v0) (f9 f10 (f11 f12 (f11 f13 f14)))) f30) (= ?v0 f30))))
(assert (forall ((?v0 S9)) (= (= (f31 (f32 f33 ?v0) (f9 f10 (f11 f12 (f11 f13 f14)))) f34) (= ?v0 f34))))
(assert (= (f27 (f28 f29 f30) (f9 f10 (f11 f12 (f11 f13 f14)))) f30))
(assert (= (f6 (f7 f8 f41) (f9 f10 (f11 f12 (f11 f13 f14)))) f41))
(assert (= (f31 (f32 f33 f34) (f9 f10 (f11 f12 (f11 f13 f14)))) f34))
(assert (forall ((?v0 S9) (?v1 S3)) (let ((?v_0 (f32 f33 ?v0))) (let ((?v_1 (f31 ?v_0 ?v1))) (= (f31 ?v_0 (f6 (f7 f40 (f9 f10 (f11 f12 (f11 f13 f14)))) ?v1)) (f11 (f35 f36 ?v_1) ?v_1))))))
(assert (forall ((?v0 S11) (?v1 S3)) (let ((?v_0 (f28 f29 ?v0))) (let ((?v_1 (f27 ?v_0 ?v1))) (= (f27 ?v_0 (f6 (f7 f40 (f9 f10 (f11 f12 (f11 f13 f14)))) ?v1)) (f37 (f38 f39 ?v_1) ?v_1))))))
(assert (forall ((?v0 S3) (?v1 S3)) (let ((?v_0 (f7 f8 ?v0))) (let ((?v_1 (f6 ?v_0 ?v1))) (= (f6 ?v_0 (f6 (f7 f40 (f9 f10 (f11 f12 (f11 f13 f14)))) ?v1)) (f6 (f7 f40 ?v_1) ?v_1))))))
(assert (forall ((?v0 S9)) (= (f11 (f35 f36 ?v0) ?v0) (f31 (f32 f33 ?v0) (f9 f10 (f11 f12 (f11 f13 f14)))))))
(assert (forall ((?v0 S11)) (= (f37 (f38 f39 ?v0) ?v0) (f27 (f28 f29 ?v0) (f9 f10 (f11 f12 (f11 f13 f14)))))))
(assert (forall ((?v0 S3)) (= (f6 (f7 f40 ?v0) ?v0) (f6 (f7 f8 ?v0) (f9 f10 (f11 f12 (f11 f13 f14)))))))
(assert (= (f19 f41 (f9 f10 (f11 f12 (f11 f13 f14)))) f1))
(assert (forall ((?v0 S11)) (let ((?v_0 (f11 f12 (f11 f13 f14)))) (let ((?v_1 (f9 f10 ?v_0))) (= (f37 (f38 f39 (f21 f22 (f11 f12 ?v_0))) (f27 (f28 f29 ?v0) ?v_1)) (f27 (f28 f29 (f37 (f38 f39 (f21 f22 ?v_0)) ?v0)) ?v_1))))))
(assert (forall ((?v0 S3) (?v1 S9)) (let ((?v_0 (f9 f10 ?v1))) (= (= (f19 f41 (f6 (f7 f8 ?v0) ?v_0)) f1) (or (= ?v_0 f41) (= (f19 f41 ?v0) f1))))))
(assert (forall ((?v0 S11) (?v1 S9)) (let ((?v_0 (f9 f10 ?v1))) (= (= (f27 (f28 f29 ?v0) ?v_0) f30) (and (= ?v0 f30) (not (= ?v_0 f41)))))))
(assert (forall ((?v0 S3) (?v1 S9)) (let ((?v_0 (f9 f10 ?v1))) (= (= (f6 (f7 f8 ?v0) ?v_0) f41) (and (= ?v0 f41) (not (= ?v_0 f41)))))))
(assert (forall ((?v0 S9) (?v1 S9)) (let ((?v_0 (f9 f10 ?v1))) (= (= (f31 (f32 f33 ?v0) ?v_0) f34) (and (= ?v0 f34) (not (= ?v_0 f41)))))))
(assert (forall ((?v0 S11) (?v1 S3)) (=> (= (f20 f30 ?v0) f1) (= (f20 f30 (f27 (f28 f29 ?v0) ?v1)) f1))))
(assert (forall ((?v0 S3) (?v1 S3)) (=> (= (f19 f41 ?v0) f1) (= (f19 f41 (f6 (f7 f8 ?v0) ?v1)) f1))))
(assert (forall ((?v0 S9) (?v1 S3)) (=> (= (f23 f34 ?v0) f1) (= (f23 f34 (f31 (f32 f33 ?v0) ?v1)) f1))))
(assert (forall ((?v0 S11)) (not (= (f20 (f37 (f38 f39 ?v0) ?v0) f30) f1))))
(assert (forall ((?v0 S9)) (not (= (f23 (f11 (f35 f36 ?v0) ?v0) f34) f1))))
(assert (forall ((?v0 S11) (?v1 S11) (?v2 S11)) (= (= (f20 (f37 (f38 f39 ?v0) ?v1) (f37 (f38 f39 ?v2) ?v1)) f1) (or (and (= (f20 f30 ?v1) f1) (= (f20 ?v0 ?v2) f1)) (and (= (f20 ?v1 f30) f1) (= (f20 ?v2 ?v0) f1))))))
(assert (forall ((?v0 S9) (?v1 S9) (?v2 S9)) (= (= (f23 (f11 (f35 f36 ?v0) ?v1) (f11 (f35 f36 ?v2) ?v1)) f1) (or (and (= (f23 f34 ?v1) f1) (= (f23 ?v0 ?v2) f1)) (and (= (f23 ?v1 f34) f1) (= (f23 ?v2 ?v0) f1))))))
(assert (forall ((?v0 S11) (?v1 S11) (?v2 S11)) (let ((?v_0 (f38 f39 ?v0))) (= (= (f20 (f37 ?v_0 ?v1) (f37 ?v_0 ?v2)) f1) (or (and (= (f20 f30 ?v0) f1) (= (f20 ?v1 ?v2) f1)) (and (= (f20 ?v0 f30) f1) (= (f20 ?v2 ?v1) f1)))))))
(assert (forall ((?v0 S9) (?v1 S9) (?v2 S9)) (let ((?v_0 (f35 f36 ?v0))) (= (= (f23 (f11 ?v_0 ?v1) (f11 ?v_0 ?v2)) f1) (or (and (= (f23 f34 ?v0) f1) (= (f23 ?v1 ?v2) f1)) (and (= (f23 ?v0 f34) f1) (= (f23 ?v2 ?v1) f1)))))))
(assert (forall ((?v0 S11) (?v1 S11) (?v2 S11)) (let ((?v_0 (f38 f39 ?v0))) (=> (= (f20 f30 ?v0) f1) (= (= (f20 (f37 ?v_0 ?v1) (f37 ?v_0 ?v2)) f1) (= (f20 ?v1 ?v2) f1))))))
(assert (forall ((?v0 S9) (?v1 S9) (?v2 S9)) (let ((?v_0 (f35 f36 ?v0))) (=> (= (f23 f34 ?v0) f1) (= (= (f23 (f11 ?v_0 ?v1) (f11 ?v_0 ?v2)) f1) (= (f23 ?v1 ?v2) f1))))))
(assert (forall ((?v0 S9)) (= (f11 f24 ?v0) ?v0)))
(assert (forall ((?v0 S11)) (= (not (= (f20 f30 (f37 (f38 f39 ?v0) ?v0)) f1)) (= ?v0 f30))))
(assert (forall ((?v0 S9) (?v1 S9)) (= (f11 (f35 f36 ?v0) ?v1) (f11 (f35 f36 ?v1) ?v0))))
(assert (forall ((?v0 S9) (?v1 S9)) (= (f11 (f35 f36 (f11 f24 ?v0)) (f11 f24 ?v1)) (f11 f24 (f11 (f35 f36 ?v0) ?v1)))))
(assert (forall ((?v0 S9) (?v1 S3) (?v2 S3)) (let ((?v_0 (f32 f33 ?v0))) (= (f31 (f32 f33 (f31 ?v_0 ?v1)) ?v2) (f31 ?v_0 (f6 (f7 f40 ?v1) ?v2))))))
(assert (forall ((?v0 S9) (?v1 S9) (?v2 S9)) (let ((?v_0 (f35 f36 ?v0))) (= (f11 (f35 f36 (f11 ?v_0 ?v1)) ?v2) (f11 ?v_0 (f11 (f35 f36 ?v1) ?v2))))))
(assert (forall ((?v0 S11) (?v1 S11)) (=> (not (= ?v0 ?v1)) (=> (=> (= (f20 ?v0 ?v1) f1) false) (=> (=> (= (f20 ?v1 ?v0) f1) false) false)))))
(assert (forall ((?v0 S9) (?v1 S9)) (=> (not (= ?v0 ?v1)) (=> (=> (= (f23 ?v0 ?v1) f1) false) (=> (=> (= (f23 ?v1 ?v0) f1) false) false)))))
(assert (forall ((?v0 S11) (?v1 S11) (?v2 S11) (?v3 S11)) (let ((?v_0 (f38 f39 ?v0))) (= (f37 (f38 f39 (f37 ?v_0 ?v1)) (f37 (f38 f39 ?v2) ?v3)) (f37 (f38 f39 (f37 ?v_0 ?v2)) (f37 (f38 f39 ?v1) ?v3))))))
(assert (forall ((?v0 S9) (?v1 S9) (?v2 S9) (?v3 S9)) (let ((?v_0 (f35 f36 ?v0))) (= (f11 (f35 f36 (f11 ?v_0 ?v1)) (f11 (f35 f36 ?v2) ?v3)) (f11 (f35 f36 (f11 ?v_0 ?v2)) (f11 (f35 f36 ?v1) ?v3))))))
(assert (forall ((?v0 S3) (?v1 S3) (?v2 S3) (?v3 S3)) (let ((?v_0 (f7 f40 ?v0))) (= (f6 (f7 f40 (f6 ?v_0 ?v1)) (f6 (f7 f40 ?v2) ?v3)) (f6 (f7 f40 (f6 ?v_0 ?v2)) (f6 (f7 f40 ?v1) ?v3))))))
(assert (forall ((?v0 S11) (?v1 S11) (?v2 S11) (?v3 S11)) (let ((?v_1 (f38 f39 (f37 (f38 f39 ?v0) ?v1))) (?v_0 (f38 f39 ?v2))) (= (f37 ?v_1 (f37 ?v_0 ?v3)) (f37 ?v_0 (f37 ?v_1 ?v3))))))
(assert (forall ((?v0 S9) (?v1 S9) (?v2 S9) (?v3 S9)) (let ((?v_1 (f35 f36 (f11 (f35 f36 ?v0) ?v1))) (?v_0 (f35 f36 ?v2))) (= (f11 ?v_1 (f11 ?v_0 ?v3)) (f11 ?v_0 (f11 ?v_1 ?v3))))))
(assert (forall ((?v0 S3) (?v1 S3) (?v2 S3) (?v3 S3)) (let ((?v_1 (f7 f40 (f6 (f7 f40 ?v0) ?v1))) (?v_0 (f7 f40 ?v2))) (= (f6 ?v_1 (f6 ?v_0 ?v3)) (f6 ?v_0 (f6 ?v_1 ?v3))))))
(assert (forall ((?v0 S11) (?v1 S11) (?v2 S11) (?v3 S11)) (let ((?v_0 (f38 f39 ?v0)) (?v_1 (f37 (f38 f39 ?v2) ?v3))) (= (f37 (f38 f39 (f37 ?v_0 ?v1)) ?v_1) (f37 ?v_0 (f37 (f38 f39 ?v1) ?v_1))))))
(assert (forall ((?v0 S9) (?v1 S9) (?v2 S9) (?v3 S9)) (let ((?v_0 (f35 f36 ?v0)) (?v_1 (f11 (f35 f36 ?v2) ?v3))) (= (f11 (f35 f36 (f11 ?v_0 ?v1)) ?v_1) (f11 ?v_0 (f11 (f35 f36 ?v1) ?v_1))))))
(assert (forall ((?v0 S3) (?v1 S3) (?v2 S3) (?v3 S3)) (let ((?v_0 (f7 f40 ?v0)) (?v_1 (f6 (f7 f40 ?v2) ?v3))) (= (f6 (f7 f40 (f6 ?v_0 ?v1)) ?v_1) (f6 ?v_0 (f6 (f7 f40 ?v1) ?v_1))))))
(assert (forall ((?v0 S11) (?v1 S11) (?v2 S11)) (let ((?v_0 (f38 f39 ?v0))) (= (f37 (f38 f39 (f37 ?v_0 ?v1)) ?v2) (f37 (f38 f39 (f37 ?v_0 ?v2)) ?v1)))))
(assert (forall ((?v0 S9) (?v1 S9) (?v2 S9)) (let ((?v_0 (f35 f36 ?v0))) (= (f11 (f35 f36 (f11 ?v_0 ?v1)) ?v2) (f11 (f35 f36 (f11 ?v_0 ?v2)) ?v1)))))
(assert (forall ((?v0 S3) (?v1 S3) (?v2 S3)) (let ((?v_0 (f7 f40 ?v0))) (= (f6 (f7 f40 (f6 ?v_0 ?v1)) ?v2) (f6 (f7 f40 (f6 ?v_0 ?v2)) ?v1)))))
(assert (forall ((?v0 S11) (?v1 S11) (?v2 S11)) (let ((?v_0 (f38 f39 ?v0))) (= (f37 (f38 f39 (f37 ?v_0 ?v1)) ?v2) (f37 ?v_0 (f37 (f38 f39 ?v1) ?v2))))))
(assert (forall ((?v0 S9) (?v1 S9) (?v2 S9)) (let ((?v_0 (f35 f36 ?v0))) (= (f11 (f35 f36 (f11 ?v_0 ?v1)) ?v2) (f11 ?v_0 (f11 (f35 f36 ?v1) ?v2))))))
(assert (forall ((?v0 S3) (?v1 S3) (?v2 S3)) (let ((?v_0 (f7 f40 ?v0))) (= (f6 (f7 f40 (f6 ?v_0 ?v1)) ?v2) (f6 ?v_0 (f6 (f7 f40 ?v1) ?v2))))))
(assert (forall ((?v0 S11) (?v1 S11) (?v2 S11)) (let ((?v_0 (f38 f39 ?v0))) (= (f37 ?v_0 (f37 (f38 f39 ?v1) ?v2)) (f37 (f38 f39 (f37 ?v_0 ?v1)) ?v2)))))
(assert (forall ((?v0 S9) (?v1 S9) (?v2 S9)) (let ((?v_0 (f35 f36 ?v0))) (= (f11 ?v_0 (f11 (f35 f36 ?v1) ?v2)) (f11 (f35 f36 (f11 ?v_0 ?v1)) ?v2)))))
(assert (forall ((?v0 S3) (?v1 S3) (?v2 S3)) (let ((?v_0 (f7 f40 ?v0))) (= (f6 ?v_0 (f6 (f7 f40 ?v1) ?v2)) (f6 (f7 f40 (f6 ?v_0 ?v1)) ?v2)))))
(assert (forall ((?v0 S11) (?v1 S11) (?v2 S11)) (let ((?v_1 (f38 f39 ?v0)) (?v_0 (f38 f39 ?v1))) (= (f37 ?v_1 (f37 ?v_0 ?v2)) (f37 ?v_0 (f37 ?v_1 ?v2))))))
(assert (forall ((?v0 S9) (?v1 S9) (?v2 S9)) (let ((?v_1 (f35 f36 ?v0)) (?v_0 (f35 f36 ?v1))) (= (f11 ?v_1 (f11 ?v_0 ?v2)) (f11 ?v_0 (f11 ?v_1 ?v2))))))
(assert (forall ((?v0 S3) (?v1 S3) (?v2 S3)) (let ((?v_1 (f7 f40 ?v0)) (?v_0 (f7 f40 ?v1))) (= (f6 ?v_1 (f6 ?v_0 ?v2)) (f6 ?v_0 (f6 ?v_1 ?v2))))))
(assert (forall ((?v0 S11) (?v1 S11)) (= (f37 (f38 f39 ?v0) ?v1) (f37 (f38 f39 ?v1) ?v0))))
(assert (forall ((?v0 S9) (?v1 S9)) (= (f11 (f35 f36 ?v0) ?v1) (f11 (f35 f36 ?v1) ?v0))))
(assert (forall ((?v0 S3) (?v1 S3)) (= (f6 (f7 f40 ?v0) ?v1) (f6 (f7 f40 ?v1) ?v0))))
(assert (forall ((?v0 S9) (?v1 S3) (?v2 S3)) (let ((?v_0 (f32 f33 ?v0))) (= (f31 ?v_0 (f6 (f7 f40 ?v1) ?v2)) (f31 (f32 f33 (f31 ?v_0 ?v1)) ?v2)))))
(assert (forall ((?v0 S11) (?v1 S3) (?v2 S3)) (let ((?v_0 (f28 f29 ?v0))) (= (f27 ?v_0 (f6 (f7 f40 ?v1) ?v2)) (f27 (f28 f29 (f27 ?v_0 ?v1)) ?v2)))))
(assert (forall ((?v0 S3) (?v1 S3) (?v2 S3)) (let ((?v_0 (f7 f8 ?v0))) (= (f6 ?v_0 (f6 (f7 f40 ?v1) ?v2)) (f6 (f7 f8 (f6 ?v_0 ?v1)) ?v2)))))
(assert (forall ((?v0 S9) (?v1 S3) (?v2 S3)) (let ((?v_0 (f32 f33 ?v0))) (= (f31 (f32 f33 (f31 ?v_0 ?v1)) ?v2) (f31 ?v_0 (f6 (f7 f40 ?v1) ?v2))))))
(assert (forall ((?v0 S11) (?v1 S3) (?v2 S3)) (let ((?v_0 (f28 f29 ?v0))) (= (f27 (f28 f29 (f27 ?v_0 ?v1)) ?v2) (f27 ?v_0 (f6 (f7 f40 ?v1) ?v2))))))
(assert (forall ((?v0 S3) (?v1 S3) (?v2 S3)) (let ((?v_0 (f7 f8 ?v0))) (= (f6 (f7 f8 (f6 ?v_0 ?v1)) ?v2) (f6 ?v_0 (f6 (f7 f40 ?v1) ?v2))))))
(assert (forall ((?v0 S11) (?v1 S11)) (=> (= (f37 (f38 f39 ?v0) ?v1) f30) (or (= ?v0 f30) (= ?v1 f30)))))
(assert (forall ((?v0 S3) (?v1 S3)) (=> (= (f6 (f7 f40 ?v0) ?v1) f41) (or (= ?v0 f41) (= ?v1 f41)))))
(assert (forall ((?v0 S9) (?v1 S9)) (=> (= (f11 (f35 f36 ?v0) ?v1) f34) (or (= ?v0 f34) (= ?v1 f34)))))
(assert (forall ((?v0 S11) (?v1 S11)) (=> (not (= ?v0 f30)) (=> (not (= ?v1 f30)) (not (= (f37 (f38 f39 ?v0) ?v1) f30))))))
(assert (forall ((?v0 S3) (?v1 S3)) (=> (not (= ?v0 f41)) (=> (not (= ?v1 f41)) (not (= (f6 (f7 f40 ?v0) ?v1) f41))))))
(assert (forall ((?v0 S9) (?v1 S9)) (=> (not (= ?v0 f34)) (=> (not (= ?v1 f34)) (not (= (f11 (f35 f36 ?v0) ?v1) f34))))))
(assert (forall ((?v0 S11) (?v1 S11)) (= (= (f37 (f38 f39 ?v0) ?v1) f30) (or (= ?v0 f30) (= ?v1 f30)))))
(assert (forall ((?v0 S9) (?v1 S9)) (= (= (f11 (f35 f36 ?v0) ?v1) f34) (or (= ?v0 f34) (= ?v1 f34)))))
(assert (forall ((?v0 S11)) (= (f37 (f38 f39 ?v0) f30) f30)))
(assert (forall ((?v0 S3)) (= (f6 (f7 f40 ?v0) f41) f41)))
(assert (forall ((?v0 S9)) (= (f11 (f35 f36 ?v0) f34) f34)))
(assert (forall ((?v0 S11)) (= (f37 (f38 f39 ?v0) f30) f30)))
(assert (forall ((?v0 S3)) (= (f6 (f7 f40 ?v0) f41) f41)))
(assert (forall ((?v0 S9)) (= (f11 (f35 f36 ?v0) f34) f34)))
(assert (forall ((?v0 S11)) (= (f37 (f38 f39 f30) ?v0) f30)))
(assert (forall ((?v0 S3)) (= (f6 (f7 f40 f41) ?v0) f41)))
(assert (forall ((?v0 S9)) (= (f11 (f35 f36 f34) ?v0) f34)))
(assert (forall ((?v0 S11)) (= (f37 (f38 f39 f30) ?v0) f30)))
(assert (forall ((?v0 S3)) (= (f6 (f7 f40 f41) ?v0) f41)))
(assert (forall ((?v0 S9)) (= (f11 (f35 f36 f34) ?v0) f34)))
(assert (forall ((?v0 S11) (?v1 S3)) (=> (not (= ?v0 f30)) (not (= (f27 (f28 f29 ?v0) ?v1) f30)))))
(assert (forall ((?v0 S9) (?v1 S3)) (=> (not (= ?v0 f34)) (not (= (f31 (f32 f33 ?v0) ?v1) f34)))))
(assert (forall ((?v0 S11) (?v1 S3)) (= (= (f27 (f28 f29 ?v0) ?v1) f30) (and (= ?v0 f30) (not (= ?v1 f41))))))
(assert (forall ((?v0 S3) (?v1 S3)) (= (= (f6 (f7 f8 ?v0) ?v1) f41) (and (= ?v0 f41) (not (= ?v1 f41))))))
(assert (forall ((?v0 S9) (?v1 S3)) (= (= (f31 (f32 f33 ?v0) ?v1) f34) (and (= ?v0 f34) (not (= ?v1 f41))))))
(assert (forall ((?v0 S9) (?v1 S3)) (let ((?v_0 (f31 (f32 f33 ?v0) ?v1))) (= (f11 (f35 f36 ?v_0) ?v0) (f11 (f35 f36 ?v0) ?v_0)))))
(assert (forall ((?v0 S11) (?v1 S3)) (let ((?v_0 (f27 (f28 f29 ?v0) ?v1))) (= (f37 (f38 f39 ?v_0) ?v0) (f37 (f38 f39 ?v0) ?v_0)))))
(assert (forall ((?v0 S3) (?v1 S3)) (let ((?v_0 (f6 (f7 f8 ?v0) ?v1))) (= (f6 (f7 f40 ?v_0) ?v0) (f6 (f7 f40 ?v0) ?v_0)))))
(assert (forall ((?v0 S9) (?v1 S9) (?v2 S3)) (= (f31 (f32 f33 (f11 (f35 f36 ?v0) ?v1)) ?v2) (f11 (f35 f36 (f31 (f32 f33 ?v0) ?v2)) (f31 (f32 f33 ?v1) ?v2)))))
(assert (forall ((?v0 S11) (?v1 S11) (?v2 S3)) (= (f27 (f28 f29 (f37 (f38 f39 ?v0) ?v1)) ?v2) (f37 (f38 f39 (f27 (f28 f29 ?v0) ?v2)) (f27 (f28 f29 ?v1) ?v2)))))
(assert (forall ((?v0 S3) (?v1 S3) (?v2 S3)) (= (f6 (f7 f8 (f6 (f7 f40 ?v0) ?v1)) ?v2) (f6 (f7 f40 (f6 (f7 f8 ?v0) ?v2)) (f6 (f7 f8 ?v1) ?v2)))))
(assert (forall ((?v0 S9) (?v1 S9) (?v2 S3)) (= (f31 (f32 f33 (f11 (f35 f36 ?v0) ?v1)) ?v2) (f11 (f35 f36 (f31 (f32 f33 ?v0) ?v2)) (f31 (f32 f33 ?v1) ?v2)))))
(assert (forall ((?v0 S11) (?v1 S11) (?v2 S3)) (= (f27 (f28 f29 (f37 (f38 f39 ?v0) ?v1)) ?v2) (f37 (f38 f39 (f27 (f28 f29 ?v0) ?v2)) (f27 (f28 f29 ?v1) ?v2)))))
(assert (forall ((?v0 S3) (?v1 S3) (?v2 S3)) (= (f6 (f7 f8 (f6 (f7 f40 ?v0) ?v1)) ?v2) (f6 (f7 f40 (f6 (f7 f8 ?v0) ?v2)) (f6 (f7 f8 ?v1) ?v2)))))
(assert (forall ((?v0 S3) (?v1 S3)) (= (= (f19 f41 (f6 (f7 f8 ?v0) ?v1)) f1) (or (= (f19 f41 ?v0) f1) (= ?v1 f41)))))
(assert (forall ((?v0 S3) (?v1 S3)) (= (= (f19 f41 (f6 (f7 f8 ?v0) ?v1)) f1) (or (= ?v1 f41) (= (f19 f41 ?v0) f1)))))
(assert (forall ((?v0 S3) (?v1 S3) (?v2 S3)) (let ((?v_0 (f7 f8 ?v0))) (=> (= (f19 f41 ?v0) f1) (=> (= (f19 (f6 ?v_0 ?v1) (f6 ?v_0 ?v2)) f1) (= (f19 ?v1 ?v2) f1))))))
(assert (forall ((?v0 S11) (?v1 S11) (?v2 S11)) (let ((?v_0 (f38 f39 ?v2))) (=> (= (f20 ?v0 ?v1) f1) (=> (= (f20 ?v2 f30) f1) (= (f20 (f37 ?v_0 ?v1) (f37 ?v_0 ?v0)) f1))))))
(assert (forall ((?v0 S9) (?v1 S9) (?v2 S9)) (let ((?v_0 (f35 f36 ?v2))) (=> (= (f23 ?v0 ?v1) f1) (=> (= (f23 ?v2 f34) f1) (= (f23 (f11 ?v_0 ?v1) (f11 ?v_0 ?v0)) f1))))))
(assert (forall ((?v0 S11) (?v1 S11) (?v2 S11)) (=> (= (f20 ?v0 ?v1) f1) (=> (= (f20 ?v2 f30) f1) (= (f20 (f37 (f38 f39 ?v1) ?v2) (f37 (f38 f39 ?v0) ?v2)) f1)))))
(assert (forall ((?v0 S9) (?v1 S9) (?v2 S9)) (=> (= (f23 ?v0 ?v1) f1) (=> (= (f23 ?v2 f34) f1) (= (f23 (f11 (f35 f36 ?v1) ?v2) (f11 (f35 f36 ?v0) ?v2)) f1)))))
(assert (forall ((?v0 S11) (?v1 S11) (?v2 S11)) (let ((?v_0 (f38 f39 ?v2))) (=> (= (f20 ?v0 ?v1) f1) (=> (= (f20 f30 ?v2) f1) (= (f20 (f37 ?v_0 ?v0) (f37 ?v_0 ?v1)) f1))))))
(assert (forall ((?v0 S3) (?v1 S3) (?v2 S3)) (let ((?v_0 (f7 f40 ?v2))) (=> (= (f19 ?v0 ?v1) f1) (=> (= (f19 f41 ?v2) f1) (= (f19 (f6 ?v_0 ?v0) (f6 ?v_0 ?v1)) f1))))))
(assert (forall ((?v0 S9) (?v1 S9) (?v2 S9)) (let ((?v_0 (f35 f36 ?v2))) (=> (= (f23 ?v0 ?v1) f1) (=> (= (f23 f34 ?v2) f1) (= (f23 (f11 ?v_0 ?v0) (f11 ?v_0 ?v1)) f1))))))
(assert (forall ((?v0 S11) (?v1 S11) (?v2 S11)) (let ((?v_0 (f38 f39 ?v2))) (=> (= (f20 ?v0 ?v1) f1) (=> (= (f20 f30 ?v2) f1) (= (f20 (f37 ?v_0 ?v0) (f37 ?v_0 ?v1)) f1))))))
(assert (forall ((?v0 S3) (?v1 S3) (?v2 S3)) (let ((?v_0 (f7 f40 ?v2))) (=> (= (f19 ?v0 ?v1) f1) (=> (= (f19 f41 ?v2) f1) (= (f19 (f6 ?v_0 ?v0) (f6 ?v_0 ?v1)) f1))))))
(assert (forall ((?v0 S9) (?v1 S9) (?v2 S9)) (let ((?v_0 (f35 f36 ?v2))) (=> (= (f23 ?v0 ?v1) f1) (=> (= (f23 f34 ?v2) f1) (= (f23 (f11 ?v_0 ?v0) (f11 ?v_0 ?v1)) f1))))))
(assert (forall ((?v0 S11) (?v1 S11) (?v2 S11)) (=> (= (f20 ?v0 ?v1) f1) (=> (= (f20 f30 ?v2) f1) (= (f20 (f37 (f38 f39 ?v0) ?v2) (f37 (f38 f39 ?v1) ?v2)) f1)))))
(assert (forall ((?v0 S3) (?v1 S3) (?v2 S3)) (=> (= (f19 ?v0 ?v1) f1) (=> (= (f19 f41 ?v2) f1) (= (f19 (f6 (f7 f40 ?v0) ?v2) (f6 (f7 f40 ?v1) ?v2)) f1)))))
(assert (forall ((?v0 S9) (?v1 S9) (?v2 S9)) (=> (= (f23 ?v0 ?v1) f1) (=> (= (f23 f34 ?v2) f1) (= (f23 (f11 (f35 f36 ?v0) ?v2) (f11 (f35 f36 ?v1) ?v2)) f1)))))
(assert (forall ((?v0 S11) (?v1 S11)) (=> (= (f20 ?v0 f30) f1) (=> (= (f20 ?v1 f30) f1) (= (f20 f30 (f37 (f38 f39 ?v0) ?v1)) f1)))))
(assert (forall ((?v0 S9) (?v1 S9)) (=> (= (f23 ?v0 f34) f1) (=> (= (f23 ?v1 f34) f1) (= (f23 f34 (f11 (f35 f36 ?v0) ?v1)) f1)))))
(assert (forall ((?v0 S11) (?v1 S11)) (=> (= (f20 ?v0 f30) f1) (=> (= (f20 f30 ?v1) f1) (= (f20 (f37 (f38 f39 ?v0) ?v1) f30) f1)))))
(assert (forall ((?v0 S3) (?v1 S3)) (=> (= (f19 ?v0 f41) f1) (=> (= (f19 f41 ?v1) f1) (= (f19 (f6 (f7 f40 ?v0) ?v1) f41) f1)))))
(assert (forall ((?v0 S9) (?v1 S9)) (=> (= (f23 ?v0 f34) f1) (=> (= (f23 f34 ?v1) f1) (= (f23 (f11 (f35 f36 ?v0) ?v1) f34) f1)))))
(assert (forall ((?v0 S11) (?v1 S11) (?v2 S11)) (let ((?v_0 (f38 f39 ?v0))) (=> (= (f20 ?v0 f30) f1) (= (= (f20 (f37 ?v_0 ?v1) (f37 ?v_0 ?v2)) f1) (= (f20 ?v2 ?v1) f1))))))
(assert (forall ((?v0 S9) (?v1 S9) (?v2 S9)) (let ((?v_0 (f35 f36 ?v0))) (=> (= (f23 ?v0 f34) f1) (= (= (f23 (f11 ?v_0 ?v1) (f11 ?v_0 ?v2)) f1) (= (f23 ?v2 ?v1) f1))))))
(assert (forall ((?v0 S11) (?v1 S11)) (=> (= (f20 f30 (f37 (f38 f39 ?v0) ?v1)) f1) (=> (= (f20 f30 ?v1) f1) (= (f20 f30 ?v0) f1)))))
(assert (forall ((?v0 S3) (?v1 S3)) (=> (= (f19 f41 (f6 (f7 f40 ?v0) ?v1)) f1) (=> (= (f19 f41 ?v1) f1) (= (f19 f41 ?v0) f1)))))
(assert (forall ((?v0 S9) (?v1 S9)) (=> (= (f23 f34 (f11 (f35 f36 ?v0) ?v1)) f1) (=> (= (f23 f34 ?v1) f1) (= (f23 f34 ?v0) f1)))))
(assert (forall ((?v0 S11) (?v1 S11)) (=> (= (f20 f30 (f37 (f38 f39 ?v0) ?v1)) f1) (=> (= (f20 f30 ?v0) f1) (= (f20 f30 ?v1) f1)))))
(assert (forall ((?v0 S3) (?v1 S3)) (=> (= (f19 f41 (f6 (f7 f40 ?v0) ?v1)) f1) (=> (= (f19 f41 ?v0) f1) (= (f19 f41 ?v1) f1)))))
(assert (forall ((?v0 S9) (?v1 S9)) (=> (= (f23 f34 (f11 (f35 f36 ?v0) ?v1)) f1) (=> (= (f23 f34 ?v0) f1) (= (f23 f34 ?v1) f1)))))
(assert (forall ((?v0 S11) (?v1 S11)) (=> (= (f20 f30 ?v0) f1) (=> (= (f20 ?v1 f30) f1) (= (f20 (f37 (f38 f39 ?v1) ?v0) f30) f1)))))
(assert (forall ((?v0 S3) (?v1 S3)) (=> (= (f19 f41 ?v0) f1) (=> (= (f19 ?v1 f41) f1) (= (f19 (f6 (f7 f40 ?v1) ?v0) f41) f1)))))
(assert (forall ((?v0 S9) (?v1 S9)) (=> (= (f23 f34 ?v0) f1) (=> (= (f23 ?v1 f34) f1) (= (f23 (f11 (f35 f36 ?v1) ?v0) f34) f1)))))
(assert (forall ((?v0 S11) (?v1 S11)) (=> (= (f20 f30 ?v0) f1) (=> (= (f20 ?v1 f30) f1) (= (f20 (f37 (f38 f39 ?v0) ?v1) f30) f1)))))
(assert (forall ((?v0 S3) (?v1 S3)) (=> (= (f19 f41 ?v0) f1) (=> (= (f19 ?v1 f41) f1) (= (f19 (f6 (f7 f40 ?v0) ?v1) f41) f1)))))
(assert (forall ((?v0 S9) (?v1 S9)) (=> (= (f23 f34 ?v0) f1) (=> (= (f23 ?v1 f34) f1) (= (f23 (f11 (f35 f36 ?v0) ?v1) f34) f1)))))
(assert (forall ((?v0 S11) (?v1 S11)) (=> (= (f20 f30 ?v0) f1) (=> (= (f20 f30 ?v1) f1) (= (f20 f30 (f37 (f38 f39 ?v0) ?v1)) f1)))))
(assert (forall ((?v0 S3) (?v1 S3)) (=> (= (f19 f41 ?v0) f1) (=> (= (f19 f41 ?v1) f1) (= (f19 f41 (f6 (f7 f40 ?v0) ?v1)) f1)))))
(assert (forall ((?v0 S9) (?v1 S9)) (=> (= (f23 f34 ?v0) f1) (=> (= (f23 f34 ?v1) f1) (= (f23 f34 (f11 (f35 f36 ?v0) ?v1)) f1)))))
(assert (forall ((?v0 S3)) (=> (= (f19 ?v0 f41) f1) false)))
(assert (forall ((?v0 S3) (?v1 S11)) (=> (= (f19 f41 ?v0) f1) (=> (= (f20 f30 ?v1) f1) (exists ((?v2 S11)) (and (and (= (f20 f30 ?v2) f1) (= (f27 (f28 f29 ?v2) ?v0) ?v1)) (forall ((?v3 S11)) (=> (and (= (f20 f30 ?v3) f1) (= (f27 (f28 f29 ?v3) ?v0) ?v1)) (= ?v3 ?v2)))))))))
(assert (forall ((?v0 S3) (?v1 S11)) (=> (= (f19 f41 ?v0) f1) (=> (= (f20 f30 ?v1) f1) (exists ((?v2 S11)) (and (= (f20 f30 ?v2) f1) (= (f27 (f28 f29 ?v2) ?v0) ?v1)))))))
(assert (forall ((?v0 S3) (?v1 S3) (?v2 S3)) (let ((?v_0 (f7 f40 ?v2))) (=> (= (f19 ?v0 ?v1) f1) (=> (= (f19 f41 ?v2) f1) (= (f19 (f6 ?v_0 ?v0) (f6 ?v_0 ?v1)) f1))))))
(assert (forall ((?v0 S3) (?v1 S3) (?v2 S3)) (=> (= (f19 ?v0 ?v1) f1) (=> (= (f19 f41 ?v2) f1) (= (f19 (f6 (f7 f40 ?v0) ?v2) (f6 (f7 f40 ?v1) ?v2)) f1)))))
(assert (forall ((?v0 S3) (?v1 S3) (?v2 S3)) (let ((?v_0 (f7 f40 ?v0))) (=> (= (f19 f41 ?v0) f1) (= (= (f19 (f6 ?v_0 ?v1) (f6 ?v_0 ?v2)) f1) (= (f19 ?v1 ?v2) f1))))))
(assert (forall ((?v0 S3) (?v1 S3) (?v2 S20)) (let ((?v_0 (= (f42 (f43 ?v2 ?v1) ?v0) f1))) (=> (=> (= (f19 ?v0 ?v1) f1) ?v_0) (=> (=> (= ?v0 ?v1) ?v_0) (=> (=> (= (f19 ?v1 ?v0) f1) ?v_0) ?v_0))))))
(assert (forall ((?v0 S3) (?v1 S3)) (=> (= (f19 ?v0 ?v1) f1) (not (= ?v0 ?v1)))))
(check-sat)
(exit)
